<number of tasks>
20

<cycle time>
1000

<order strength>
0,805


<task times>
1 482
2 347
3 497
4 423
5 531
6 589
7 550
8 481
9 655
10 444
11 752
12 774
13 563
14 367
15 590
16 506
17 505
18 447
19 693
20 290

<precedence relations>
1,3
1,5
1,6
2,3
2,4
2,6
3,7
3,8
4,7
5,7
6,7
6,8
7,9
8,9
9,10
9,11
9,12
10,13
10,14
12,14
12,15
13,15
15,16
15,17
15,18
16,19
16,20
17,19
18,20

<end>
